%%% Taken from Slack
%% Same as pl-example04: Twice the cuantities of 2020-10-08-jonne-slack
%% BUT everything is now under compounds (no combinations)
%% It produces 2 plates
%
%% 2021/Jan/18: It takes about 2min 33sec (twice the time of pl-example04)

%% Plate dimentions: (this is a 384-well plate)
num_rows = 16; %% height
num_cols = 24; %% width

vertical_cell_lines	 = 1;
horizontal_cell_lines	 = 1;
allow_empty_wells = false;
size_empty_edge = 1;

% New and used!
concentrations_on_different_rows = true;
concentrations_on_different_columns = true;

% New and unused! (Restriction: replicates_on_different_plates /\ replicates_on_same_plate == false)
replicates_on_different_plates = true;
replicates_on_same_plate = false;


%%% Compounds %%%
compounds = 8 + 28; %% number of drugs/compounds
compound_replicates	 = [4 | i in 1..8+28];
compound_concentrations	 = [6 | i in 1..8]++[3| i in 1..28]; 

compound_names = ["(\(i))(M)" | i in 1..8]++["(1)(2)","(1)(3)","(1)(4)","(1)(5)","(1)(6)","(1)(7)","(1)(8)","(2)(3)","(2)(4)","(2)(5)","(2)(6)","(2)(7)","(2)(8)","(3)(4)","(3)(5)","(3)(6)","(3)(7)","(3)(8)","(4)(5)","(4)(6)","(4)(7)","(4)(8)","(5)(6)","(5)(7)","(5)(8)","(6)(7)","(6)(8)","(7)(8)"];

compound_concentration_names = [|"1", "3.16", "5.62", "10", "17.78", "56.23"
|"1", "3.16", "5.62", "10", "17.78", "56.23"
|"1", "3.16", "5.62", "10", "17.78", "56.23"
|"1", "3.16", "5.62", "10", "17.78", "56.23"
|"1", "3.16", "5.62", "10", "17.78", "56.23"
|"1", "3.16", "5.62", "10", "17.78", "56.23"
|"1", "3.16", "5.62", "10", "17.78", "56.23"
|"1", "3.16", "5.62", "10", "17.78", "56.23"
|"1","5.62","10","","",""
|"1","5.62","10","","",""
|"1","5.62","10","","",""
|"1","5.62","10","","",""
|"1","5.62","10","","",""
|"1","5.62","10","","",""
|"1","5.62","10","","",""
|"1","5.62","10","","",""
|"1","5.62","10","","",""
|"1","5.62","10","","",""
|"1","5.62","10","","",""
|"1","5.62","10","","",""
|"1","5.62","10","","",""
|"1","5.62","10","","",""
|"1","5.62","10","","",""
|"1","5.62","10","","",""
|"1","5.62","10","","",""
|"1","5.62","10","","",""
|"1","5.62","10","","",""
|"1","5.62","10","","",""
|"1","5.62","10","","",""
|"1","5.62","10","","",""
|"1","5.62","10","","",""
|"1","5.62","10","","",""
|"1","5.62","10","","",""
|"1","5.62","10","","",""
|"1","5.62","10","","",""
|"1","5.62","10","","",""|];

compound_concentration_indicators = ["" | i in 1..6]; %% Used for drawing plate in latex

%%% Combinations %%%
%combinations = 28;
%combination_concentrations = 3;
%combination_names = ["(1)(2)","(1)(3)","(1)(4)","(1)(5)","(1)(6)","(1)(7)","(1)(8)","(2)(3)","(2)(4)","(2)(5)","(2)(6)","(2)(7)","(2)(8)","(3)(4)","(3)(5)","(3)(6)",
%"(3)(7)","(3)(8)","(4)(5)","(4)(6)","(4)(7)","(4)(8)","(5)(6)","(5)(7)","(5)(8)","(6)(7)","(6)(8)","(7)(8)"];

combination_concentration_names = [];%["comb-conc\(i)" | i in 1..combination_concentrations];

combinations = 0;
combination_concentrations = 0;
combination_names = [];

%combination_concentration_names = ["1","5.62","10"];%["comb-conc\(i)" | i in 1..combination_concentrations];


%%% Controls %%%
num_controls = 8+1;
control_concentrations = [2 | i in 1..num_controls];

control_names = ["[dmso]","[sorbitol]","[I]","[II]","[III]","[IV]","[V]","[VI]","blank"];

control_replicates = [4| i in 1..8]++[12];
  
control_concentration_names = [|"1","5.62"
|"1","5.62"
|"1","5.62"
|"1","5.62"
|"1","5.62"
|"1","5.62"
|"1","5.62"
|"1","5.62"
|"1","5.62"|];
 
